c Binary Pigeonhole Principle for 4 pigeons and 5 holes
c Generated with `cnfgen`
c (C) 2012-2019 Massimo Lauria <massimo.lauria@uniroma1.it>
c https://massimolauria.net/cnfgen
c
c COMMAND LINE: cnfgen -v -o pigeon4.cnf bphp 4 5
c
p cnf 12 42
-3 2 -1 0
-3 -2 1 0
-3 -2 -1 0
-6 5 -4 0
-6 -5 4 0
-6 -5 -4 0
-9 8 -7 0
-9 -8 7 0
-9 -8 -7 0
-12 11 -10 0
-12 -11 10 0
-12 -11 -10 0
3 2 1 6 5 4 0
3 2 1 9 8 7 0
3 2 1 12 11 10 0
6 5 4 9 8 7 0
6 5 4 12 11 10 0
9 8 7 12 11 10 0
3 2 -1 6 5 -4 0
3 2 -1 9 8 -7 0
3 2 -1 12 11 -10 0
6 5 -4 9 8 -7 0
6 5 -4 12 11 -10 0
9 8 -7 12 11 -10 0
3 -2 1 6 -5 4 0
3 -2 1 9 -8 7 0
3 -2 1 12 -11 10 0
6 -5 4 9 -8 7 0
6 -5 4 12 -11 10 0
9 -8 7 12 -11 10 0
3 -2 -1 6 -5 -4 0
3 -2 -1 9 -8 -7 0
3 -2 -1 12 -11 -10 0
6 -5 -4 9 -8 -7 0
6 -5 -4 12 -11 -10 0
9 -8 -7 12 -11 -10 0
-3 2 1 -6 5 4 0
-3 2 1 -9 8 7 0
-3 2 1 -12 11 10 0
-6 5 4 -9 8 7 0
-6 5 4 -12 11 10 0
-9 8 7 -12 11 10 0
